p cnf 1995
-25 -627
-26 -630
-27 -633
-28 -636
-29 -639
-30 -642
-31 -645
-32 -648
-33 -651
-34 -654
-35 -657
-36 -660
-37 -663
-38 -666
-39 -669
-40 -672
-41 -675
-42 -678
-43 -681
-44 -684
-45 -687
-46 -690
-47 -693
-48 -696
-49 697
-50 698
-51 699
-52 700
-53 701
-54 702
-55 703
-56 704
-57 705
-58 706
-59 707
-60 708
-61 709
-62 710
-63 711
-64 712
-65 713
-66 714
-67 715
-68 716
-69 -26
-69 -27
26 27 69
-70 -28
-70 -29
28 29 70
-71 -30
-71 -31
30 31 71
-72 -32
-72 -33
32 33 72
-73 -34
-73 -35
34 35 73
-74 -36
-74 -37
36 37 74
-75 -38
-75 -39
38 39 75
-76 -40
-76 -41
40 41 76
-77 -42
-77 -43
42 43 77
-78 -44
-78 -45
44 45 78
-79 -46
-79 -47
46 47 79
-80 -48
-80 -49
48 49 80
-81 -50
-81 -51
50 51 81
-82 -52
-82 -53
52 53 82
-83 -54
-83 -55
54 55 83
-84 -56
-84 -57
56 57 84
-85 -58
-85 -59
58 59 85
-86 -60
-86 -61
60 61 86
-87 -62
-87 -63
62 63 87
-88 -64
-88 -65
64 65 88
-89 -66
-89 -67
66 67 89
-90 69
-90 70
-69 -70 90
-91 71
-91 72
-71 -72 91
-92 73
-92 74
-73 -74 92
-93 75
-93 76
-75 -76 93
-94 77
-94 78
-77 -78 94
-95 79
-95 80
-79 -80 95
-96 81
-96 82
-81 -82 96
-97 83
-97 84
-83 -84 97
-98 85
-98 86
-85 -86 98
-99 87
-99 88
-87 -88 99
-100 -68
-100 89
68 -89 100
-101 90
-101 91
-90 -91 101
-102 92
-102 93
-92 -93 102
-103 94
-103 95
-94 -95 103
-104 96
-104 97
-96 -97 104
-105 98
-105 99
-98 -99 105
-106 101
-106 102
-101 -102 106
-107 103
-107 104
-103 -104 107
-108 100
-108 105
-100 -105 108
-109 106
-109 107
-106 -107 109
-110 108
-110 109
-108 -109 110
-111 -25
-111 26
25 -26 111
-112 25
-112 -26
-25 26 112
-113 -111
-113 -112
111 112 113
-114 25
-114 26
-25 -26 114
-115 -25
-115 -113
25 113 115
-116 25
-116 113
-25 -113 116
-117 -115
-117 -116
115 116 117
-118 25
-118 -113
-25 113 118
-119 -114
-119 -118
114 118 119
-120 -26
-120 27
26 -27 120
-121 26
-121 -27
-26 27 121
-122 -120
-122 -121
120 121 122
-123 26
-123 27
-26 -27 123
-124 119
-124 -122
-119 122 124
-125 -119
-125 122
119 -122 125
-126 -124
-126 -125
124 125 126
-127 -119
-127 -122
119 122 127
-128 -123
-128 -127
123 127 128
-129 -27
-129 28
27 -28 129
-130 27
-130 -28
-27 28 130
-131 -129
-131 -130
129 130 131
-132 27
-132 28
-27 -28 132
-133 128
-133 -131
-128 131 133
-134 -128
-134 131
128 -131 134
-135 -133
-135 -134
133 134 135
-136 -128
-136 -131
128 131 136
-137 -132
-137 -136
132 136 137
-138 -28
-138 29
28 -29 138
-139 28
-139 -29
-28 29 139
-140 -138
-140 -139
138 139 140
-141 28
-141 29
-28 -29 141
-142 137
-142 -140
-137 140 142
-143 -137
-143 140
137 -140 143
-144 -142
-144 -143
142 143 144
-145 -137
-145 -140
137 140 145
-146 -141
-146 -145
141 145 146
-147 -29
-147 30
29 -30 147
-148 29
-148 -30
-29 30 148
-149 -147
-149 -148
147 148 149
-150 29
-150 30
-29 -30 150
-151 146
-151 -149
-146 149 151
-152 -146
-152 149
146 -149 152
-153 -151
-153 -152
151 152 153
-154 -146
-154 -149
146 149 154
-155 -150
-155 -154
150 154 155
-156 -30
-156 31
30 -31 156
-157 30
-157 -31
-30 31 157
-158 -156
-158 -157
156 157 158
-159 30
-159 31
-30 -31 159
-160 155
-160 -158
-155 158 160
-161 -155
-161 158
155 -158 161
-162 -160
-162 -161
160 161 162
-163 -155
-163 -158
155 158 163
-164 -159
-164 -163
159 163 164
-165 -31
-165 32
31 -32 165
-166 31
-166 -32
-31 32 166
-167 -165
-167 -166
165 166 167
-168 31
-168 32
-31 -32 168
-169 164
-169 -167
-164 167 169
-170 -164
-170 167
164 -167 170
-171 -169
-171 -170
169 170 171
-172 -164
-172 -167
164 167 172
-173 -168
-173 -172
168 172 173
-174 -32
-174 33
32 -33 174
-175 32
-175 -33
-32 33 175
-176 -174
-176 -175
174 175 176
-177 32
-177 33
-32 -33 177
-178 173
-178 -176
-173 176 178
-179 -173
-179 176
173 -176 179
-180 -178
-180 -179
178 179 180
-181 -173
-181 -176
173 176 181
-182 -177
-182 -181
177 181 182
-183 -33
-183 34
33 -34 183
-184 33
-184 -34
-33 34 184
-185 -183
-185 -184
183 184 185
-186 33
-186 34
-33 -34 186
-187 182
-187 -185
-182 185 187
-188 -182
-188 185
182 -185 188
-189 -187
-189 -188
187 188 189
-190 -182
-190 -185
182 185 190
-191 -186
-191 -190
186 190 191
-192 -34
-192 35
34 -35 192
-193 34
-193 -35
-34 35 193
-194 -192
-194 -193
192 193 194
-195 34
-195 35
-34 -35 195
-196 191
-196 -194
-191 194 196
-197 -191
-197 194
191 -194 197
-198 -196
-198 -197
196 197 198
-199 -191
-199 -194
191 194 199
-200 -195
-200 -199
195 199 200
-201 -35
-201 36
35 -36 201
-202 35
-202 -36
-35 36 202
-203 -201
-203 -202
201 202 203
-204 35
-204 36
-35 -36 204
-205 200
-205 -203
-200 203 205
-206 -200
-206 203
200 -203 206
-207 -205
-207 -206
205 206 207
-208 -200
-208 -203
200 203 208
-209 -204
-209 -208
204 208 209
-210 -36
-210 37
36 -37 210
-211 36
-211 -37
-36 37 211
-212 -210
-212 -211
210 211 212
-213 36
-213 37
-36 -37 213
-214 209
-214 -212
-209 212 214
-215 -209
-215 212
209 -212 215
-216 -214
-216 -215
214 215 216
-217 -209
-217 -212
209 212 217
-218 -213
-218 -217
213 217 218
-219 -37
-219 38
37 -38 219
-220 37
-220 -38
-37 38 220
-221 -219
-221 -220
219 220 221
-222 37
-222 38
-37 -38 222
-223 218
-223 -221
-218 221 223
-224 -218
-224 221
218 -221 224
-225 -223
-225 -224
223 224 225
-226 -218
-226 -221
218 221 226
-227 -222
-227 -226
222 226 227
-228 -38
-228 39
38 -39 228
-229 38
-229 -39
-38 39 229
-230 -228
-230 -229
228 229 230
-231 38
-231 39
-38 -39 231
-232 227
-232 -230
-227 230 232
-233 -227
-233 230
227 -230 233
-234 -232
-234 -233
232 233 234
-235 -227
-235 -230
227 230 235
-236 -231
-236 -235
231 235 236
-237 -39
-237 40
39 -40 237
-238 39
-238 -40
-39 40 238
-239 -237
-239 -238
237 238 239
-240 39
-240 40
-39 -40 240
-241 236
-241 -239
-236 239 241
-242 -236
-242 239
236 -239 242
-243 -241
-243 -242
241 242 243
-244 -236
-244 -239
236 239 244
-245 -240
-245 -244
240 244 245
-246 -40
-246 41
40 -41 246
-247 40
-247 -41
-40 41 247
-248 -246
-248 -247
246 247 248
-249 40
-249 41
-40 -41 249
-250 245
-250 -248
-245 248 250
-251 -245
-251 248
245 -248 251
-252 -250
-252 -251
250 251 252
-253 -245
-253 -248
245 248 253
-254 -249
-254 -253
249 253 254
-255 -41
-255 42
41 -42 255
-256 41
-256 -42
-41 42 256
-257 -255
-257 -256
255 256 257
-258 41
-258 42
-41 -42 258
-259 254
-259 -257
-254 257 259
-260 -254
-260 257
254 -257 260
-261 -259
-261 -260
259 260 261
-262 -254
-262 -257
254 257 262
-263 -258
-263 -262
258 262 263
-264 -42
-264 43
42 -43 264
-265 42
-265 -43
-42 43 265
-266 -264
-266 -265
264 265 266
-267 42
-267 43
-42 -43 267
-268 263
-268 -266
-263 266 268
-269 -263
-269 266
263 -266 269
-270 -268
-270 -269
268 269 270
-271 -263
-271 -266
263 266 271
-272 -267
-272 -271
267 271 272
-273 -43
-273 44
43 -44 273
-274 43
-274 -44
-43 44 274
-275 -273
-275 -274
273 274 275
-276 43
-276 44
-43 -44 276
-277 272
-277 -275
-272 275 277
-278 -272
-278 275
272 -275 278
-279 -277
-279 -278
277 278 279
-280 -272
-280 -275
272 275 280
-281 -276
-281 -280
276 280 281
-282 -44
-282 45
44 -45 282
-283 44
-283 -45
-44 45 283
-284 -282
-284 -283
282 283 284
-285 44
-285 45
-44 -45 285
-286 281
-286 -284
-281 284 286
-287 -281
-287 284
281 -284 287
-288 -286
-288 -287
286 287 288
-289 -281
-289 -284
281 284 289
-290 -285
-290 -289
285 289 290
-291 -45
-291 46
45 -46 291
-292 45
-292 -46
-45 46 292
-293 -291
-293 -292
291 292 293
-294 45
-294 46
-45 -46 294
-295 290
-295 -293
-290 293 295
-296 -290
-296 293
290 -293 296
-297 -295
-297 -296
295 296 297
-298 -290
-298 -293
290 293 298
-299 -294
-299 -298
294 298 299
-300 -46
-300 47
46 -47 300
-301 46
-301 -47
-46 47 301
-302 -300
-302 -301
300 301 302
-303 46
-303 47
-46 -47 303
-304 299
-304 -302
-299 302 304
-305 -299
-305 302
299 -302 305
-306 -304
-306 -305
304 305 306
-307 -299
-307 -302
299 302 307
-308 -303
-308 -307
303 307 308
-309 -47
-309 48
47 -48 309
-310 47
-310 -48
-47 48 310
-311 -309
-311 -310
309 310 311
-312 47
-312 48
-47 -48 312
-313 308
-313 -311
-308 311 313
-314 -308
-314 311
308 -311 314
-315 -313
-315 -314
313 314 315
-316 -308
-316 -311
308 311 316
-317 -312
-317 -316
312 316 317
-318 -48
-318 49
48 -49 318
-319 48
-319 -49
-48 49 319
-320 -318
-320 -319
318 319 320
-321 48
-321 49
-48 -49 321
-322 317
-322 -320
-317 320 322
-323 -317
-323 320
317 -320 323
-324 -322
-324 -323
322 323 324
-325 -317
-325 -320
317 320 325
-326 -321
-326 -325
321 325 326
-327 -49
-327 50
49 -50 327
-328 49
-328 -50
-49 50 328
-329 -327
-329 -328
327 328 329
-330 49
-330 50
-49 -50 330
-331 326
-331 -329
-326 329 331
-332 -326
-332 329
326 -329 332
-333 -331
-333 -332
331 332 333
-334 -326
-334 -329
326 329 334
-335 -330
-335 -334
330 334 335
-336 -50
-336 51
50 -51 336
-337 50
-337 -51
-50 51 337
-338 -336
-338 -337
336 337 338
-339 50
-339 51
-50 -51 339
-340 335
-340 -338
-335 338 340
-341 -335
-341 338
335 -338 341
-342 -340
-342 -341
340 341 342
-343 -335
-343 -338
335 338 343
-344 -339
-344 -343
339 343 344
-345 -51
-345 52
51 -52 345
-346 51
-346 -52
-51 52 346
-347 -345
-347 -346
345 346 347
-348 51
-348 52
-51 -52 348
-349 344
-349 -347
-344 347 349
-350 -344
-350 347
344 -347 350
-351 -349
-351 -350
349 350 351
-352 -344
-352 -347
344 347 352
-353 -348
-353 -352
348 352 353
-354 -52
-354 53
52 -53 354
-355 52
-355 -53
-52 53 355
-356 -354
-356 -355
354 355 356
-357 52
-357 53
-52 -53 357
-358 353
-358 -356
-353 356 358
-359 -353
-359 356
353 -356 359
-360 -358
-360 -359
358 359 360
-361 -353
-361 -356
353 356 361
-362 -357
-362 -361
357 361 362
-363 -53
-363 54
53 -54 363
-364 53
-364 -54
-53 54 364
-365 -363
-365 -364
363 364 365
-366 53
-366 54
-53 -54 366
-367 362
-367 -365
-362 365 367
-368 -362
-368 365
362 -365 368
-369 -367
-369 -368
367 368 369
-370 -362
-370 -365
362 365 370
-371 -366
-371 -370
366 370 371
-372 -54
-372 55
54 -55 372
-373 54
-373 -55
-54 55 373
-374 -372
-374 -373
372 373 374
-375 54
-375 55
-54 -55 375
-376 371
-376 -374
-371 374 376
-377 -371
-377 374
371 -374 377
-378 -376
-378 -377
376 377 378
-379 -371
-379 -374
371 374 379
-380 -375
-380 -379
375 379 380
-381 -55
-381 56
55 -56 381
-382 55
-382 -56
-55 56 382
-383 -381
-383 -382
381 382 383
-384 55
-384 56
-55 -56 384
-385 380
-385 -383
-380 383 385
-386 -380
-386 383
380 -383 386
-387 -385
-387 -386
385 386 387
-388 -380
-388 -383
380 383 388
-389 -384
-389 -388
384 388 389
-390 -56
-390 57
56 -57 390
-391 56
-391 -57
-56 57 391
-392 -390
-392 -391
390 391 392
-393 56
-393 57
-56 -57 393
-394 389
-394 -392
-389 392 394
-395 -389
-395 392
389 -392 395
-396 -394
-396 -395
394 395 396
-397 -389
-397 -392
389 392 397
-398 -393
-398 -397
393 397 398
-399 -57
-399 58
57 -58 399
-400 57
-400 -58
-57 58 400
-401 -399
-401 -400
399 400 401
-402 57
-402 58
-57 -58 402
-403 398
-403 -401
-398 401 403
-404 -398
-404 401
398 -401 404
-405 -403
-405 -404
403 404 405
-406 -398
-406 -401
398 401 406
-407 -402
-407 -406
402 406 407
-408 -58
-408 59
58 -59 408
-409 58
-409 -59
-58 59 409
-410 -408
-410 -409
408 409 410
-411 58
-411 59
-58 -59 411
-412 407
-412 -410
-407 410 412
-413 -407
-413 410
407 -410 413
-414 -412
-414 -413
412 413 414
-415 -407
-415 -410
407 410 415
-416 -411
-416 -415
411 415 416
-417 -59
-417 60
59 -60 417
-418 59
-418 -60
-59 60 418
-419 -417
-419 -418
417 418 419
-420 59
-420 60
-59 -60 420
-421 416
-421 -419
-416 419 421
-422 -416
-422 419
416 -419 422
-423 -421
-423 -422
421 422 423
-424 -416
-424 -419
416 419 424
-425 -420
-425 -424
420 424 425
-426 -60
-426 61
60 -61 426
-427 60
-427 -61
-60 61 427
-428 -426
-428 -427
426 427 428
-429 60
-429 61
-60 -61 429
-430 425
-430 -428
-425 428 430
-431 -425
-431 428
425 -428 431
-432 -430
-432 -431
430 431 432
-433 -425
-433 -428
425 428 433
-434 -429
-434 -433
429 433 434
-435 -61
-435 62
61 -62 435
-436 61
-436 -62
-61 62 436
-437 -435
-437 -436
435 436 437
-438 61
-438 62
-61 -62 438
-439 434
-439 -437
-434 437 439
-440 -434
-440 437
434 -437 440
-441 -439
-441 -440
439 440 441
-442 -434
-442 -437
434 437 442
-443 -438
-443 -442
438 442 443
-444 -62
-444 63
62 -63 444
-445 62
-445 -63
-62 63 445
-446 -444
-446 -445
444 445 446
-447 62
-447 63
-62 -63 447
-448 443
-448 -446
-443 446 448
-449 -443
-449 446
443 -446 449
-450 -448
-450 -449
448 449 450
-451 -443
-451 -446
443 446 451
-452 -447
-452 -451
447 451 452
-453 -63
-453 64
63 -64 453
-454 63
-454 -64
-63 64 454
-455 -453
-455 -454
453 454 455
-456 63
-456 64
-63 -64 456
-457 452
-457 -455
-452 455 457
-458 -452
-458 455
452 -455 458
-459 -457
-459 -458
457 458 459
-460 -452
-460 -455
452 455 460
-461 -456
-461 -460
456 460 461
-462 -64
-462 65
64 -65 462
-463 64
-463 -65
-64 65 463
-464 -462
-464 -463
462 463 464
-465 64
-465 65
-64 -65 465
-466 461
-466 -464
-461 464 466
-467 -461
-467 464
461 -464 467
-468 -466
-468 -467
466 467 468
-469 -461
-469 -464
461 464 469
-470 -465
-470 -469
465 469 470
-471 -65
-471 66
65 -66 471
-472 65
-472 -66
-65 66 472
-473 -471
-473 -472
471 472 473
-474 65
-474 66
-65 -66 474
-475 470
-475 -473
-470 473 475
-476 -470
-476 473
470 -473 476
-477 -475
-477 -476
475 476 477
-478 -470
-478 -473
470 473 478
-479 -474
-479 -478
474 478 479
-480 -66
-480 67
66 -67 480
-481 66
-481 -67
-66 67 481
-482 -480
-482 -481
480 481 482
-483 66
-483 67
-66 -67 483
-484 479
-484 -482
-479 482 484
-485 -479
-485 482
479 -482 485
-486 -484
-486 -485
484 485 486
-487 -479
-487 -482
479 482 487
-488 -483
-488 -487
483 487 488
-489 -67
-489 68
67 -68 489
-490 67
-490 -68
-67 68 490
-491 -489
-491 -490
489 490 491
-492 67
-492 68
-67 -68 492
-493 488
-493 -491
-488 491 493
-494 -488
-494 491
488 -491 494
-495 -493
-495 -494
493 494 495
-496 -488
-496 -491
488 491 496
-497 -492
-497 -496
492 496 497
-498 25
-498 -117
-25 117 498
-499 -25
-499 27
25 -27 499
-500 -498
-500 -499
498 499 500
-501 25
-501 -126
-25 126 501
-502 -25
-502 28
25 -28 502
-503 -501
-503 -502
501 502 503
-504 25
-504 -135
-25 135 504
-505 -25
-505 29
25 -29 505
-506 -504
-506 -505
504 505 506
-507 25
-507 -144
-25 144 507
-508 -25
-508 30
25 -30 508
-509 -507
-509 -508
507 508 509
-510 25
-510 -153
-25 153 510
-511 -25
-511 31
25 -31 511
-512 -510
-512 -511
510 511 512
-513 25
-513 -162
-25 162 513
-514 -25
-514 32
25 -32 514
-515 -513
-515 -514
513 514 515
-516 25
-516 -171
-25 171 516
-517 -25
-517 33
25 -33 517
-518 -516
-518 -517
516 517 518
-519 25
-519 -180
-25 180 519
-520 -25
-520 34
25 -34 520
-521 -519
-521 -520
519 520 521
-522 25
-522 -189
-25 189 522
-523 -25
-523 35
25 -35 523
-524 -522
-524 -523
522 523 524
-525 25
-525 -198
-25 198 525
-526 -25
-526 36
25 -36 526
-527 -525
-527 -526
525 526 527
-528 25
-528 -207
-25 207 528
-529 -25
-529 37
25 -37 529
-530 -528
-530 -529
528 529 530
-531 25
-531 -216
-25 216 531
-532 -25
-532 38
25 -38 532
-533 -531
-533 -532
531 532 533
-534 25
-534 -225
-25 225 534
-535 -25
-535 39
25 -39 535
-536 -534
-536 -535
534 535 536
-537 25
-537 -234
-25 234 537
-538 -25
-538 40
25 -40 538
-539 -537
-539 -538
537 538 539
-540 25
-540 -243
-25 243 540
-541 -25
-541 41
25 -41 541
-542 -540
-542 -541
540 541 542
-543 25
-543 -252
-25 252 543
-544 -25
-544 42
25 -42 544
-545 -543
-545 -544
543 544 545
-546 25
-546 -261
-25 261 546
-547 -25
-547 43
25 -43 547
-548 -546
-548 -547
546 547 548
-549 25
-549 -270
-25 270 549
-550 -25
-550 44
25 -44 550
-551 -549
-551 -550
549 550 551
-552 25
-552 -279
-25 279 552
-553 -25
-553 45
25 -45 553
-554 -552
-554 -553
552 553 554
-555 25
-555 -288
-25 288 555
-556 -25
-556 46
25 -46 556
-557 -555
-557 -556
555 556 557
-558 25
-558 -297
-25 297 558
-559 -25
-559 47
25 -47 559
-560 -558
-560 -559
558 559 560
-561 25
-561 -306
-25 306 561
-562 -25
-562 48
25 -48 562
-563 -561
-563 -562
561 562 563
-564 25
-564 -315
-25 315 564
-565 -25
-565 49
25 -49 565
-566 -564
-566 -565
564 565 566
-567 25
-567 -324
-25 324 567
-568 -25
-568 50
25 -50 568
-569 -567
-569 -568
567 568 569
-570 25
-570 -333
-25 333 570
-571 -25
-571 51
25 -51 571
-572 -570
-572 -571
570 571 572
-573 25
-573 -342
-25 342 573
-574 -25
-574 52
25 -52 574
-575 -573
-575 -574
573 574 575
-576 25
-576 -351
-25 351 576
-577 -25
-577 53
25 -53 577
-578 -576
-578 -577
576 577 578
-579 25
-579 -360
-25 360 579
-580 -25
-580 54
25 -54 580
-581 -579
-581 -580
579 580 581
-582 25
-582 -369
-25 369 582
-583 -25
-583 55
25 -55 583
-584 -582
-584 -583
582 583 584
-585 25
-585 -378
-25 378 585
-586 -25
-586 56
25 -56 586
-587 -585
-587 -586
585 586 587
-588 25
-588 -387
-25 387 588
-589 -25
-589 57
25 -57 589
-590 -588
-590 -589
588 589 590
-591 25
-591 -396
-25 396 591
-592 -25
-592 58
25 -58 592
-593 -591
-593 -592
591 592 593
-594 25
-594 -405
-25 405 594
-595 -25
-595 59
25 -59 595
-596 -594
-596 -595
594 595 596
-597 25
-597 -414
-25 414 597
-598 -25
-598 60
25 -60 598
-599 -597
-599 -598
597 598 599
-600 25
-600 -423
-25 423 600
-601 -25
-601 61
25 -61 601
-602 -600
-602 -601
600 601 602
-603 25
-603 -432
-25 432 603
-604 -25
-604 62
25 -62 604
-605 -603
-605 -604
603 604 605
-606 25
-606 -441
-25 441 606
-607 -25
-607 63
25 -63 607
-608 -606
-608 -607
606 607 608
-609 25
-609 -450
-25 450 609
-610 -25
-610 64
25 -64 610
-611 -609
-611 -610
609 610 611
-612 25
-612 -459
-25 459 612
-613 -25
-613 65
25 -65 613
-614 -612
-614 -613
612 613 614
-615 25
-615 -468
-25 468 615
-616 -25
-616 66
25 -66 616
-617 -615
-617 -616
615 616 617
-618 25
-618 -477
-25 477 618
-619 -25
-619 67
25 -67 619
-620 -618
-620 -619
618 619 620
-621 25
-621 -486
-25 486 621
-622 -25
-622 68
25 -68 622
-623 -621
-623 -622
621 622 623
-624 25
-624 -495
-25 495 624
-625 1
-625 110
-1 -110 625
-626 -110
-626 111
110 -111 626
-627 -625
-627 -626
625 626 627
-628 2
-628 110
-2 -110 628
-629 -110
-629 -500
110 500 629
-630 -628
-630 -629
628 629 630
-631 3
-631 110
-3 -110 631
-632 -110
-632 -503
110 503 632
-633 -631
-633 -632
631 632 633
-634 4
-634 110
-4 -110 634
-635 -110
-635 -506
110 506 635
-636 -634
-636 -635
634 635 636
-637 5
-637 110
-5 -110 637
-638 -110
-638 -509
110 509 638
-639 -637
-639 -638
637 638 639
-640 6
-640 110
-6 -110 640
-641 -110
-641 -512
110 512 641
-642 -640
-642 -641
640 641 642
-643 7
-643 110
-7 -110 643
-644 -110
-644 -515
110 515 644
-645 -643
-645 -644
643 644 645
-646 8
-646 110
-8 -110 646
-647 -110
-647 -518
110 518 647
-648 -646
-648 -647
646 647 648
-649 9
-649 110
-9 -110 649
-650 -110
-650 -521
110 521 650
-651 -649
-651 -650
649 650 651
-652 10
-652 110
-10 -110 652
-653 -110
-653 -524
110 524 653
-654 -652
-654 -653
652 653 654
-655 11
-655 110
-11 -110 655
-656 -110
-656 -527
110 527 656
-657 -655
-657 -656
655 656 657
-658 12
-658 110
-12 -110 658
-659 -110
-659 -530
110 530 659
-660 -658
-660 -659
658 659 660
-661 13
-661 110
-13 -110 661
-662 -110
-662 -533
110 533 662
-663 -661
-663 -662
661 662 663
-664 14
-664 110
-14 -110 664
-665 -110
-665 -536
110 536 665
-666 -664
-666 -665
664 665 666
-667 15
-667 110
-15 -110 667
-668 -110
-668 -539
110 539 668
-669 -667
-669 -668
667 668 669
-670 16
-670 110
-16 -110 670
-671 -110
-671 -542
110 542 671
-672 -670
-672 -671
670 671 672
-673 17
-673 110
-17 -110 673
-674 -110
-674 -545
110 545 674
-675 -673
-675 -674
673 674 675
-676 18
-676 110
-18 -110 676
-677 -110
-677 -548
110 548 677
-678 -676
-678 -677
676 677 678
-679 19
-679 110
-19 -110 679
-680 -110
-680 -551
110 551 680
-681 -679
-681 -680
679 680 681
-682 20
-682 110
-20 -110 682
-683 -110
-683 -554
110 554 683
-684 -682
-684 -683
682 683 684
-685 21
-685 110
-21 -110 685
-686 -110
-686 -557
110 557 686
-687 -685
-687 -686
685 686 687
-688 22
-688 110
-22 -110 688
-689 -110
-689 -560
110 560 689
-690 -688
-690 -689
688 689 690
-691 23
-691 110
-23 -110 691
-692 -110
-692 -563
110 563 692
-693 -691
-693 -692
691 692 693
-694 24
-694 110
-24 -110 694
-695 -110
-695 -566
110 566 695
-696 -694
-696 -695
694 695 696
-697 -110
-697 -569
110 569 697
-698 -110
-698 -572
110 572 698
-699 -110
-699 -575
110 575 699
-700 -110
-700 -578
110 578 700
-701 -110
-701 -581
110 581 701
-702 -110
-702 -584
110 584 702
-703 -110
-703 -587
110 587 703
-704 -110
-704 -590
110 590 704
-705 -110
-705 -593
110 593 705
-706 -110
-706 -596
110 596 706
-707 -110
-707 -599
110 599 707
-708 -110
-708 -602
110 602 708
-709 -110
-709 -605
110 605 709
-710 -110
-710 -608
110 608 710
-711 -110
-711 -611
110 611 711
-712 -110
-712 -614
110 614 712
-713 -110
-713 -617
110 617 713
-714 -110
-714 -620
110 620 714
-715 -110
-715 -623
110 623 715
-716 -110
-716 624
110 -624 716
-717 -68
-717 497
68 -497 717
-718 25
-718 -717
-25 717 718
718
